NAME: tsp10_24
COMMENT: 10-tsp problem (Padberg/Rinaldi)
TYPE: TSP
DIMENSION: 10
EDGE_WEIGHT_TYPE : EUC_2D
NODE_COORD_SECTION
1.00 37.39 13.04
2.00 19.98 17.69
3.00 25.45 34.71
4.00 24.21 18.35
5.00 20.54 1.05
6.00 15.10 1.54
7.00 32.84 29.97
8.00 2.88 28.09
9.00 37.93 24.65
10.00 0.63 22.79
